# Solution for model GasLib-40
# Objective value = 1.0696842740286854e+02
loadshed[innode_1] 0
loadshed[innode_2] 0
loadshed[innode_3] 0
loadshed[innode_4] 0
loadshed[innode_5] 0
loadshed[innode_6] 0
loadshed[innode_7] 0
loadshed[innode_8] 0
loadshed[source_1] 1.0122065664592328e-01
loadshed[source_2] 2.4308130073771494e-01
loadshed[source_3] 3.3232679491208572e-01
loadshed[sink_1] 1
loadshed[sink_2] 0
loadshed[sink_3] 0
loadshed[sink_4] 0
loadshed[sink_5] 0
loadshed[sink_6] 0
loadshed[sink_7] 0
loadshed[sink_8] 0
loadshed[sink_9] 1
loadshed[sink_10] 0
loadshed[sink_11] 0
loadshed[sink_12] 1
loadshed[sink_13] 0
loadshed[sink_14] 0
loadshed[sink_15] 0
loadshed[sink_16] 0
loadshed[sink_17] 0
loadshed[sink_18] 2.3319812629847378e-01
loadshed[sink_19] 0
loadshed[sink_20] 0
loadshed[sink_21] 1
loadshed[sink_22] 3.5435566434177013e-01
loadshed[sink_23] 0
loadshed[sink_24] 9.5319081488547508e-01
loadshed[sink_25] 0
loadshed[sink_26] 1
loadshed[sink_27] 0
loadshed[sink_28] 0
loadshed[sink_29] 0
flow[source_1,sink_3] 1.4208827605177470e+02
flow[innode_1,sink_16] 1.6354166666666970e+01
flow[innode_6,sink_13] 8.92652420953954
flow[sink_13,sink_14] -7.4276424571271278e+00
flow[sink_14,sink_10] -2.3781809123793796e+01
flow[sink_25,sink_26] 0
flow[sink_26,sink_9] 0
flow[sink_9,sink_18] 0
flow[sink_26,sink_4] 0
flow[sink_4,sink_20] 0
flow[sink_18,sink_6] -1.2540405642825624e+01
flow[sink_25,innode_8] -1.0937994271843831e+02
flow[sink_6,sink_7] -3.9453547382236266e+01
flow[sink_6,sink_22] 1.0558975072743969e+01
flow[sink_7,sink_24] 7.6552521489379544e-01
flow[sink_22,sink_1] 0
flow[sink_24,sink_21] 0
flow[sink_21,sink_12] 0
flow[sink_7,sink_5] -5.6573239263796722e+01
flow[sink_5,sink_17] -72.9274059304634
flow[sink_17,sink_4] 16.3541666666693
flow[sink_17,sink_8] -1.0563573926379935e+02
flow[sink_3,sink_23] 16.3541666666697
flow[sink_8,sink_20] -1.2198990593046602e+02
flow[sink_25,sink_20] 1.3834407259713282e+02
flow[sink_25,sink_15] -5.4244820754900992e+01
flow[sink_15,sink_29] -4.2027876670870526e+01
flow[sink_29,sink_28] 1.6354166666667879e+01
flow[sink_29,sink_2] 44.9252774173638
flow[sink_2,sink_15] 2.8571110750697134e+01
flow[sink_29,innode_7] -1.1966148742156888e+02
flow[innode_4,sink_19] 4.0350348979930828e+01
flow[sink_19,innode_3] 3.5547715376750155e+01
flow[innode_4,innode_5] 6.5202293477196733e+01
flow[sink_27,innode_5] -6.5202293477196733e+01
flow[sink_27,sink_19] 4.8848126810530061e+01
flow[sink_10,sink_11] 3.2708333333333641e+01
flow[sink_10,innode_2] -3.7296593747043964e+01
flow[sink_10,innode_3] -3.5547715376750155e+01
flow[innode_6,sink_25] -8.92652420953954
flow[sink_11,innode_1] 1.6354166666666970e+01
flow[sink_19,innode_2] 3.7296593747043964e+01
flow[source_3,innode_4] 1.0555264245712756e+02
flow[source_2,innode_7] 1.1966148742156888e+02
flow[sink_3,innode_8] 1.0937994271843831e+02
pressure[innode_1] 7.7255574222435811e+01
pressure[innode_2] 7.9378554549547815e+01
pressure[innode_3] 7.9299838159188113e+01
pressure[innode_4] 81.01325
pressure[innode_5] 80.9684004244188
pressure[innode_6] 76.3183473889502
pressure[innode_7] 81.01325
pressure[innode_8] 8.0538303172847790e+01
pressure[source_1] 81.01325
pressure[source_2] 81.01325
pressure[source_3] 81.01325
pressure[sink_1] 1.0132500000000002e+00
pressure[sink_2] 7.6674766006578864e+01
pressure[sink_3] 8.0538303172847790e+01
pressure[sink_4] 3.0225649420907459e+01
pressure[sink_5] 2.5418087137320921e+01
pressure[sink_6] 1.3481161683577028e+00
pressure[sink_7] 1.8897193308923821e+00
pressure[sink_8] 3.4836562622035224e+01
pressure[sink_9] 1.0132499999999152e+00
pressure[sink_10] 7.7407275530039357e+01
pressure[sink_11] 7.7255574222435811e+01
pressure[sink_12] 1.01325
pressure[sink_13] 7.6269136952743793e+01
pressure[sink_14] 7.6282429351616059e+01
pressure[sink_15] 7.6581487626949226e+01
pressure[sink_16] 7.6233924387618131e+01
pressure[sink_17] 3.0850651744709907e+01
pressure[sink_18] 1.0132499999998636e+00
pressure[sink_19] 7.9378554549547815e+01
pressure[sink_20] 4.3337543488277269e+01
pressure[sink_21] 1.01325
pressure[sink_22] 1.0132500000000002e+00
pressure[sink_23] 80.373585161188
pressure[sink_24] 1.01325
pressure[sink_25] 76.3183473889502
pressure[sink_26] 1.0132500000000002e+00
pressure[sink_27] 8.0427341869441818e+01
pressure[sink_28] 7.7517491711194253e+01
pressure[sink_29] 7.7812773984811443e+01
interdiction[source_1,sink_3] 0
interdiction[innode_1,sink_16] 0
interdiction[innode_6,sink_13] 0
interdiction[sink_13,sink_14] 0
interdiction[sink_14,sink_10] 0
interdiction[sink_25,sink_26] 1
interdiction[sink_26,sink_9] 0
interdiction[sink_9,sink_18] 0
interdiction[sink_26,sink_4] 1
interdiction[sink_4,sink_20] 1
interdiction[sink_18,sink_6] 0
interdiction[sink_25,innode_8] 0
interdiction[sink_6,sink_7] 0
interdiction[sink_6,sink_22] 0
interdiction[sink_7,sink_24] 0
interdiction[sink_22,sink_1] 0
interdiction[sink_24,sink_21] 0
interdiction[sink_21,sink_12] 0
interdiction[sink_7,sink_5] 0
interdiction[sink_5,sink_17] 0
interdiction[sink_17,sink_4] 0
interdiction[sink_17,sink_8] 0
interdiction[sink_3,sink_23] 0
interdiction[sink_8,sink_20] 0
interdiction[sink_25,sink_20] 0
interdiction[sink_25,sink_15] 0
interdiction[sink_15,sink_29] 0
interdiction[sink_29,sink_28] 0
interdiction[sink_29,sink_2] 0
interdiction[sink_2,sink_15] 0
interdiction[sink_29,innode_7] 0
interdiction[innode_4,sink_19] 0
interdiction[sink_19,innode_3] 0
interdiction[innode_4,innode_5] 0
interdiction[sink_27,innode_5] 0
interdiction[sink_27,sink_19] 0
interdiction[sink_10,sink_11] 0
interdiction[sink_10,innode_2] 0
interdiction[sink_10,innode_3] 0
interdiction[innode_6,sink_25] 0
interdiction[sink_11,innode_1] 0
interdiction[sink_19,innode_2] 0
interdiction[source_3,innode_4] 0
interdiction[source_2,innode_7] 0
interdiction[sink_3,innode_8] 0
WCcheckFlow[source_1,sink_3] 39
WCcheckFlow[innode_1,sink_16] 1
WCcheckFlow[innode_6,sink_13] 13
WCcheckFlow[sink_13,sink_14] 12
WCcheckFlow[sink_14,sink_10] 11
WCcheckFlow[sink_25,sink_26] 0
WCcheckFlow[sink_26,sink_9] -1
WCcheckFlow[sink_9,sink_18] -2
WCcheckFlow[sink_26,sink_4] 0
WCcheckFlow[sink_4,sink_20] 0
WCcheckFlow[sink_18,sink_6] -3
WCcheckFlow[sink_25,innode_8] -36
WCcheckFlow[sink_6,sink_7] -6
WCcheckFlow[sink_6,sink_22] 2
WCcheckFlow[sink_7,sink_24] 3
WCcheckFlow[sink_22,sink_1] 1
WCcheckFlow[sink_24,sink_21] 2
WCcheckFlow[sink_21,sink_12] 1
WCcheckFlow[sink_7,sink_5] -10
WCcheckFlow[sink_5,sink_17] -11
WCcheckFlow[sink_17,sink_4] 1
WCcheckFlow[sink_17,sink_8] -13
WCcheckFlow[sink_3,sink_23] 1
WCcheckFlow[sink_8,sink_20] -14
WCcheckFlow[sink_25,sink_20] 15
WCcheckFlow[sink_25,sink_15] 6
WCcheckFlow[sink_15,sink_29] 5
WCcheckFlow[sink_29,sink_28] 1
WCcheckFlow[sink_29,sink_2] 1
WCcheckFlow[sink_2,sink_15] 0
WCcheckFlow[sink_29,innode_7] 2
WCcheckFlow[innode_4,sink_19] -4
WCcheckFlow[sink_19,innode_3] -5
WCcheckFlow[innode_4,innode_5] 2
WCcheckFlow[sink_27,innode_5] -1
WCcheckFlow[sink_27,sink_19] 0
WCcheckFlow[sink_10,sink_11] 3
WCcheckFlow[sink_10,innode_2] 1
WCcheckFlow[sink_10,innode_3] 6
WCcheckFlow[innode_6,sink_25] -14
WCcheckFlow[sink_11,innode_1] 2
WCcheckFlow[sink_19,innode_2] 0
WCcheckFlow[source_3,innode_4] -1
WCcheckFlow[source_2,innode_7] -1
WCcheckFlow[sink_3,innode_8] 37
